WARNING: for repeatability, setting FPU to use double precision
============================[ Problem Statistics ]=============================
|                                                                             |
|  Number of symmetries:          29                                          |
|  Number of invertingSyms:        0                                          |
|  Number of variables:           240                                         |
|  Number of clauses:            1816                                         |
|  Parse time:                   0.00 s                                       |
|                                                                             |
============================[ Search Statistics ]==============================
| Conflicts |          ORIGINAL         |          LEARNT          | Progress |
|           |    Vars  Clauses Literals |    Limit  Clauses Lit/Cl |          |
===============================================================================
|       100 |     240     1816     3840 |      665      105    103 |  0.002 % |
|       250 |     240     1816     3840 |      732      297    109 |  0.002 % |
|       475 |     240     1816     3840 |      805      647     91 |  0.002 % |
|       812 |     240     1816     3840 |      886      780     74 |  0.002 % |
|      1318 |     240     1816     3840 |      974      623     72 |  0.002 % |
|      2077 |     240     1816     3840 |     1072      701     69 |  0.002 % |
|      3216 |     240     1816     3840 |     1179      731     68 |  0.028 % |
|      4924 |     240     1816     3840 |     1297     1244     71 |  0.002 % |
|      7486 |     240     1816     3840 |     1427     1369     92 |  0.002 % |
|     11330 |     240     1816     3840 |     1570     1278     91 |  0.002 % |
|     17096 |     240     1816     3840 |     1727     1427     93 |  0.002 % |
|     25745 |     240     1816     3840 |     1899     1049     80 |  0.002 % |
|     38719 |     240     1816     3840 |     2089     1232     90 |  0.002 % |
|     58180 |     240     1816     3840 |     2298     1542     75 |  0.002 % |
|     87372 |     240     1816     3840 |     2528     1628     93 |  0.002 % |
|    131161 |     240     1816     3840 |     2781     1692     79 |  0.002 % |
|    196845 |     240     1816     3840 |     3059     2257     64 |  0.002 % |
|    295371 |     240     1816     3840 |     3365     2574     87 |  0.002 % |
|    443160 |     240     1816     3840 |     3702     3102     82 |  0.002 % |
|    664843 |     240     1816     3840 |     4072     2961    100 |  0.002 % |
===============================================================================
restarts              : 2046
conflicts             : 983945         (30118 /sec)
symconflicts          : 104730         (3206 /sec)
decisions             : 1564058        (0.00 % random) (47874 /sec)
propagations          : 20489035       (627151 /sec)
sympropagations       : 631445         (19328 /sec)
conflict literals     : 86509974       (6.66 % deleted)
Memory used           : 11.00 MB
CPU time              : 32.67 s

UNSATISFIABLE
